************************************************************************
file with basedata            : J12045_.BAS
initial value random generator: 1415094817
************************************************************************
projects                      :  1
jobs (incl. supersource/sink ):  122
horizon                       :  661
RESOURCES
  - renewable                 :  4   R
  - nonrenewable              :  0   N
  - doubly constrained        :  0   D
************************************************************************
PROJECT INFORMATION:
pronr.  #jobs rel.date duedate tardcost  MPM-Time
    1    120      0      103       16      103
************************************************************************
PRECEDENCE RELATIONS:
jobnr.    #modes  #successors   successors
   1        1          3           2   3   4
   2        1          3           6   8  13
   3        1          3          23  51  70
   4        1          3           5   7   9
   5        1          3          10  12  33
   6        1          3          32  80  87
   7        1          3          14  16 114
   8        1          1          84
   9        1          3          11  15  18
  10        1          2          56  85
  11        1          3          24  40  83
  12        1          3          21  42  45
  13        1          1          17
  14        1          3          19  22  29
  15        1          3          20  67  90
  16        1          3          54  72  97
  17        1          3          36 106 118
  18        1          3          21  23  48
  19        1          3          41  91  94
  20        1          3          27  28  83
  21        1          3          25  37  54
  22        1          2          26  52
  23        1          3          61  62  89
  24        1          3          30  39  48
  25        1          3          35  46  74
  26        1          1          45
  27        1          3          44  66  75
  28        1          3          31  38  70
  29        1          2          43  93
  30        1          2          52  75
  31        1          3          32  65  82
  32        1          3          34  57  72
  33        1          3          49  53  56
  34        1          3          71  88  99
  35        1          3          55  58  98
  36        1          3          40  80  89
  37        1          3          61  67  99
  38        1          3          76  86  91
  39        1          3          55  92 101
  40        1          2          47  67
  41        1          2          46  59
  42        1          3          44  63 117
  43        1          3          49  63 109
  44        1          3          56  71  82
  45        1          2          46  50
  46        1          3          61  68 106
  47        1          3          52  53  96
  48        1          3          53  79  81
  49        1          3          58  62  66
  50        1          3          59  63  69
  51        1          1          76
  52        1          3          64  81 112
  53        1          3          54  66  90
  54        1          3          64  92 110
  55        1          2          79 108
  56        1          2          70  86
  57        1          3          59  68 102
  58        1          1          60
  59        1          2          76 101
  60        1          3          68  85 115
  61        1          2          78  87
  62        1          3          72  75 105
  63        1          3          64  74  95
  64        1          1          77
  65        1          3          69  73  85
  66        1          2          69  77
  67        1          1          95
  68        1          3          71  77 104
  69        1          1         108
  70        1          1         120
  71        1          3          78  97 118
  72        1          1          98
  73        1          3          88 105 112
  74        1          3          83  91 100
  75        1          2          84 113
  76        1          3          78  93 103
  77        1          1         100
  78        1          1         107
  79        1          1          88
  80        1          2          81  90
  81        1          2          84 109
  82        1          3          96  98  99
  83        1          1         119
  84        1          2          86 108
  85        1          3          87  92  97
  86        1          1          94
  87        1          1         118
  88        1          3          89  93 102
  89        1          1          96
  90        1          1         112
  91        1          1         107
  92        1          2          94 111
  93        1          1         111
  94        1          1          95
  95        1          1         100
  96        1          2         113 114
  97        1          1         107
  98        1          1         104
  99        1          2         102 103
 100        1          1         116
 101        1          2         103 110
 102        1          2         104 114
 103        1          3         105 109 115
 104        1          1         116
 105        1          1         106
 106        1          1         119
 107        1          1         110
 108        1          1         117
 109        1          1         111
 110        1          1         119
 111        1          1         113
 112        1          2         115 117
 113        1          1         116
 114        1          1         120
 115        1          1         121
 116        1          1         120
 117        1          1         121
 118        1          1         121
 119        1          1         122
 120        1          1         122
 121        1          1         122
 122        1          0        
************************************************************************
REQUESTS/DURATIONS:
jobnr. mode duration  R 1  R 2  R 3  R 4
------------------------------------------------------------------------
  1      1     0       0    0    0    0
  2      1     3       0    6    0    0
  3      1     6       0    0    0    2
  4      1    10       0    0    0    1
  5      1     5       0    0    7    0
  6      1     2       0    6    0    0
  7      1     5       0    0    2    0
  8      1     9       0    0    0    3
  9      1     8       0    5    0    0
 10      1     3       0    0    9    0
 11      1     1       2    0    0    0
 12      1     3       2    0    0    0
 13      1    10       8    0    0    0
 14      1     5       0    0    0    7
 15      1     4       0    0   10    0
 16      1     2       0    0    0    1
 17      1     2       0    0    9    0
 18      1     4       0    0    9    0
 19      1     5       0    5    0    0
 20      1     5       0    0    9    0
 21      1     3       0    0    1    0
 22      1     3       8    0    0    0
 23      1     3       0    3    0    0
 24      1     6       4    0    0    0
 25      1     9       0    0    0    5
 26      1     4       0    8    0    0
 27      1     6       6    0    0    0
 28      1     1      10    0    0    0
 29      1     5       0    0    0    6
 30      1     5      10    0    0    0
 31      1     7       0    0    8    0
 32      1     3       0    0    0    8
 33      1     1       0    5    0    0
 34      1     7       2    0    0    0
 35      1     9       0    5    0    0
 36      1     7       0    8    0    0
 37      1     8       0    1    0    0
 38      1     2       5    0    0    0
 39      1     3       0    9    0    0
 40      1     5       0    0    6    0
 41      1     8       0    0    0    9
 42      1     2       0    3    0    0
 43      1     1       4    0    0    0
 44      1     6       0    8    0    0
 45      1     8       0    0    8    0
 46      1    10       0    0    0    9
 47      1     4       0    0    0   10
 48      1     6       0   10    0    0
 49      1    10       0    1    0    0
 50      1     6       5    0    0    0
 51      1    10       0    3    0    0
 52      1     6       0    0    2    0
 53      1     9      10    0    0    0
 54      1    10       0    0    4    0
 55      1     2       0    0    0    7
 56      1     4       0    2    0    0
 57      1    10       4    0    0    0
 58      1     3       1    0    0    0
 59      1     8       0   10    0    0
 60      1     7      10    0    0    0
 61      1     9       0    0    9    0
 62      1     4       0    0    7    0
 63      1     4       0    0    0    3
 64      1     9       0    0    0    3
 65      1     7       0    0    0    3
 66      1    10       0    0    0    4
 67      1     4       0    0    3    0
 68      1     1       0    0    2    0
 69      1     5       0    2    0    0
 70      1     8       0    0    0   10
 71      1     6       1    0    0    0
 72      1     2       0   10    0    0
 73      1     8       6    0    0    0
 74      1     4       0    0    0    3
 75      1     5       0    7    0    0
 76      1     8       0    0    4    0
 77      1     3       0    2    0    0
 78      1     2       5    0    0    0
 79      1     2       0    0    1    0
 80      1     2       0    8    0    0
 81      1     1       0   10    0    0
 82      1     5       0    0    0    4
 83      1    10       0    0    8    0
 84      1     7       2    0    0    0
 85      1     3       0    5    0    0
 86      1     2       0    0    3    0
 87      1     9       0    0    9    0
 88      1     9       0    0    5    0
 89      1     3       0    0    4    0
 90      1     1       0   10    0    0
 91      1     8       6    0    0    0
 92      1     9       0   10    0    0
 93      1    10       0    2    0    0
 94      1     6       9    0    0    0
 95      1     1       0    0   10    0
 96      1     5       2    0    0    0
 97      1     9       0    3    0    0
 98      1     8       0    3    0    0
 99      1     2       0    8    0    0
100      1     1       0    8    0    0
101      1     6       0    0    1    0
102      1     8       8    0    0    0
103      1     7       4    0    0    0
104      1     7       7    0    0    0
105      1     2       0    0    0    9
106      1     8       0    3    0    0
107      1     7       0    0    8    0
108      1     7       3    0    0    0
109      1     4       0    8    0    0
110      1     7       9    0    0    0
111      1     6       0    2    0    0
112      1     3       0    8    0    0
113      1     7       3    0    0    0
114      1     6       4    0    0    0
115      1     6       0    0    7    0
116      1     5       0    5    0    0
117      1     4       0    0    0    7
118      1    10       0    0    0    8
119      1     7       4    0    0    0
120      1    10       0    0    6    0
121      1     3       0   10    0    0
122      1     0       0    0    0    0
************************************************************************
RESOURCEAVAILABILITIES:
  R 1  R 2  R 3  R 4
   19   22   18   24
************************************************************************
